Route #1: 67 34 52 46 8 35 19 54 13 27 29 45
Route #2: 7 53 14 59 11 66 65 38
Route #3: 10 31 39 9 25 55 18 50 32 44
Route #4: 3 24 49 23 56 41 43 42 64 22 61 28 74
Route #5: 30 48 47 21 69 36 71 60 70 20 37 5 15 57
Route #6: 26 58 72 12 40 17 51 16 63 33 1 73 62
Route #7: 6 2 68 4 75
Cost 747